proyfinal/src/viki/013/experimentInOfficeAgust.take6.output/4f0ab0ad-f215-43c2-b2a5-01517a09979c.als.out
Reading from standard input... Use '--help' for help.
============================[ Problem Statistics ]=============================
|                                                                             |
|  Number of variables:         87638                                         |
|  Number of clauses:          161767                                         |
|  Parse time:                   0.04 s                                       |
|                                                                             |
============================[ Search Statistics ]==============================
| Conflicts |          ORIGINAL         |          LEARNT          | Progress |
|           |    Vars  Clauses Literals |    Limit  Clauses Lit/Cl |          |
===============================================================================
|       100 |   62368   105146   262679 |    38553      100     10 | 28.835 % |
|       250 |   62368   105146   262679 |    42408      250     71 | 28.835 % |
|       475 |   62356   105068   262461 |    46649      474     60 | 28.848 % |
|       812 |   62351   105044   262385 |    51314      809     78 | 28.854 % |
|      1318 |   62351   105044   262385 |    56446     1315     92 | 28.854 % |
|      2077 |   62351   105044   262385 |    62090     2074     89 | 28.854 % |
|      3216 |   62351   105044   262385 |    68299     3213    102 | 28.854 % |
|      4924 |   51715    74233   186138 |    75129     4869     88 | 40.990 % |
|      7486 |   51556    73591   184573 |    82642     7402     76 | 41.172 % |
|     11330 |   51434    73121   183421 |    90907    10956     70 | 41.311 % |
|     17096 |   50103    68846   172778 |    99997     9568     66 | 42.830 % |
===============================================================================
restarts              : 63
conflicts             : 17559          (7816 /sec)
decisions             : 54967          (0.00 % random) (24468 /sec)
propagations          : 24081901       (10719742 /sec)
conflict literals     : 1130084        (47.56 % deleted)
Memory used           : 32.31 MB
CPU time              : 2.2465 s

UNSATISFIABLE
